Pt  O  H 
 1.0000000000000000
    13.8592929112563308    0.0000000000000000    0.0000000000000000
     0.0000000000000000    9.6019997917100568    0.0000000000000000
     0.0000000000000000    0.0000000000000000   24.5264261104466641
  60   1   1
Cartesian
  1.3859292911256331  0.8001666493091714  9.9999999999999982
  4.1577878733768996  0.8001666493091714  9.9999999999999982
  6.9296464556281654  0.8001666493091714  9.9999999999999982
  9.7015050378794321  0.8001666493091714  9.9999999999999982
 12.4733636201306979  0.8001666493091714  9.9999999999999982
  0.0000000000000000  3.2006665972366855  9.9999999999999982
  2.7718585822512662  3.2006665972366855  9.9999999999999982
  5.5437171645025325  3.2006665972366855  9.9999999999999982
  8.3155757467537992  3.2006665972366855  9.9999999999999982
 11.0874343290050650  3.2006665972366855  9.9999999999999982
  1.3859292911256331  5.6011665451642001  9.9999999999999982
  4.1577878733768996  5.6011665451642001  9.9999999999999982
  6.9296464556281654  5.6011665451642001  9.9999999999999982
  9.7015050378794321  5.6011665451642001  9.9999999999999982
 12.4733636201306979  5.6011665451642001  9.9999999999999982
  0.0000000000000000  8.0016664930917152  9.9999999999999982
  2.7718585822512662  8.0016664930917152  9.9999999999999982
  5.5437171645025325  8.0016664930917152  9.9999999999999982
  8.3155757467537992  8.0016664930917152  9.9999999999999982
 11.0874343290050650  8.0016664930917152  9.9999999999999982
  0.0000000000000000  1.6003332986183427 12.2632130552233320
  2.7718585822512662  1.6003332986183427 12.2632130552233320
  5.5437171645025325  1.6003332986183427 12.2632130552233320
  8.3155757467537992  1.6003332986183427 12.2632130552233320
 11.0874343290050650  1.6003332986183427 12.2632130552233320
  1.3859292911256331  4.0008332465458567 12.2632130552233320
  4.1577878733768996  4.0008332465458567 12.2632130552233320
  6.9296464556281654  4.0008332465458567 12.2632130552233320
  9.7015050378794321  4.0008332465458567 12.2632130552233320
 12.4733636201306979  4.0008332465458567 12.2632130552233320
  0.0000000000000000  6.4013331944733709 12.2632130552233320
  2.7718585822512662  6.4013331944733709 12.2632130552233320
  5.5437171645025325  6.4013331944733709 12.2632130552233320
  8.3155757467537992  6.4013331944733709 12.2632130552233320
 11.0874343290050650  6.4013331944733709 12.2632130552233320
  1.3859292911256331  8.8018331424008842 12.2632130552233320
  4.1577878733768996  8.8018331424008842 12.2632130552233320
  6.9296464556281654  8.8018331424008842 12.2632130552233320
  9.7015050378794321  8.8018331424008842 12.2632130552233320
 12.4733636201306979  8.8018331424008842 12.2632130552233320
  0.0000000000000000  0.0000000000000000 14.5264261104466641
  2.7718585822512662  0.0000000000000000 14.5264261104466641
  5.5437171645025325  0.0000000000000000 14.5264261104466641
  8.3155757467537992  0.0000000000000000 14.5264261104466641
 11.0874343290050650  0.0000000000000000 14.5264261104466641
  1.3859292911256331  2.4004999479275142 14.5264261104466641
  4.1577878733768996  2.4004999479275142 14.5264261104466641
  6.9296464556281654  2.4004999479275142 14.5264261104466641
  9.7015050378794321  2.4004999479275142 14.5264261104466641
 12.4733636201306979  2.4004999479275142 14.5264261104466641
  0.0000000000000000  4.8009998958550284 14.5264261104466641
  2.7718585822512662  4.8009998958550284 14.5264261104466641
  5.5437171645025325  4.8009998958550284 14.5264261104466641
  8.3155757467537992  4.8009998958550284 14.5264261104466641
 11.0874343290050650  4.8009998958550284 14.5264261104466641
  1.3859292911256331  7.2014998437825426 14.5264261104466641
  4.1577878733768996  7.2014998437825426 14.5264261104466641
  6.9296464556281654  7.2014998437825426 14.5264261104466641
  9.7015050378794321  7.2014998437825426 14.5264261104466641
 12.4733636201306979  7.2014998437825426 14.5264261104466641
  6.9296464556281663  4.8009998958550284 15.5264261104466641
  6.9296464556281663  5.0009998958550286 16.5264261104466641
